90 362583
71 68 42 32 80 7 11 46 67 75 22 88 39 43 30 83 65 38 15 2 21 66 56 58 45 52 26 48 19 33 20 51 60 13 1 16 72 29 25 61 70 47 82 54 55 84 31 74 76 6 44 87 9 14 27 81 69 12 49 37 63 62 36 77 89 79 23 59 10 86 53 57 40 18 34 3 50 4 17 85 8 78 73 64 90 24 5 28 41 35 
